# Objective value = 44
WA1n 0
WA1p 0
WA2n 1
WA2p 0
WB1n 0
WB1p 0
WB2n 1
WB2p 0
WC1n 0
WC1p 0
WC2n 0
WC2p 1
WD1n 0
WD1p 1
WE1n 1
WE1p 0
WE2n 1
WE2p 0
WF1n 3
WF1p 0
WG1n 3
WG1p 0
WH1n 0
WH1p 3
WI1n 0
WI1p 3
WJ1n 13
WJ1p 0
WJ2n 1
WJ2p 0
WT1n 5
WT1p 0
WT2n 1
WT2p 0
5 7
a 0
b 0
c 0
d 0
e 0
f 1
g 1
h 0
i 0
j 0
k 0
l 1
m 1
n 0
o 0
p 0
q 0
